% seed = 5483295

mint = 45;
% maxt = 109;

nActs = 22;
dur = [0,10,5,9,5,1,4,9,8,2,3,5,2,10,2,10,3,8,1,8,4,0];

nSkills = 4;
sreq = [| 0,0,0,0,
	| 2,0,3,3,
	| 2,0,2,2,
	| 0,2,2,3,
	| 3,0,2,1,
	| 0,2,2,2,
	| 1,3,0,2,
	| 0,3,1,3,
	| 3,0,1,1,
	| 2,3,0,3,
	| 1,3,3,0,
	| 1,2,0,3,
	| 0,2,1,1,
	| 1,2,0,3,
	| 0,2,1,2,
	| 2,3,0,2,
	| 1,0,2,2,
	| 1,2,2,0,
	| 0,2,2,3,
	| 2,1,0,1,
	| 2,2,0,1,
	| 0,0,0,0, |];

nResources = 10;
mastery = [| true,false,true,false,
	| false,true,true,false,
	| false,true,true,true,
	| false,true,false,false,
	| true,false,false,true,
	| false,true,true,false,
	| true,false,false,true,
	| false,false,true,false,
	| true,false,false,false,
	| true,false,true,false, |];

nPrecs = 43;
pred = [1,1,1,2,2,2,3,3,3,4,4,4,5,5,5,6,6,6,7,7,7,8,9,9,9,10,10,11,11,11,12,12,13,13,14,14,15,16,17,18,19,20,21];
succ = [2,3,4,19,7,8,9,14,8,5,6,14,19,21,8,10,11,19,12,13,16,15,10,15,16,17,20,21,13,16,17,14,17,15,18,21,18,20,18,20,22,22,22];

nUnrels = 92;
unpred = [2,2,2,2,2,2,2,3,3,3,3,3,3,3,3,4,4,4,5,5,5,5,5,5,5,5,5,5,6,6,6,6,6,7,7,7,7,7,8,8,8,8,8,8,8,8,8,8,9,9,9,9,9,9,10,10,10,10,10,10,10,10,11,11,11,12,12,12,12,13,13,13,13,14,14,14,14,15,15,15,15,16,16,16,16,17,17,18,18,19,19,20];
unsucc = [3,4,5,6,9,10,11,4,5,6,7,11,12,13,19,7,9,12,6,7,9,10,11,12,13,14,16,17,7,8,9,12,14,8,9,10,11,19,9,10,11,12,13,14,16,17,19,21,11,12,13,14,19,21,11,12,13,14,15,16,19,21,12,14,19,13,15,16,19,14,16,19,21,15,16,17,19,16,17,19,21,17,18,19,21,19,21,19,21,20,21,21];

USEFUL_RES = [{},
	{1,2,3,5,6,7,8,9,10},
	{1,2,3,5,6,7,8,9,10},
	{1,2,3,4,5,6,7,8,10},
	{1,2,3,5,6,7,8,9,10},
	{1,2,3,4,5,6,7,8,10},
	{1,2,3,4,5,6,7,9,10},
	{1,2,3,4,5,6,7,8,10},
	{1,2,3,5,6,7,8,9,10},
	{1,2,3,4,5,6,7,9,10},
	{1,2,3,4,5,6,7,8,9,10},
	{1,2,3,4,5,6,7,9,10},
	{1,2,3,4,5,6,7,8,10},
	{1,2,3,4,5,6,7,9,10},
	{1,2,3,4,5,6,7,8,10},
	{1,2,3,4,5,6,7,9,10},
	{1,2,3,5,6,7,8,9,10},
	{1,2,3,4,5,6,7,8,9,10},
	{1,2,3,4,5,6,7,8,10},
	{1,2,3,4,5,6,7,9,10},
	{1,2,3,4,5,6,7,9,10},
	{}];

POTENTIAL_ACT = [{2,3,4,5,6,7,8,9,10,11,12,13,14,15,16,17,18,19,20,21},
	{2,3,4,5,6,7,8,9,10,11,12,13,14,15,16,17,18,19,20,21},
	{2,3,4,5,6,7,8,9,10,11,12,13,14,15,16,17,18,19,20,21},
	{4,6,7,8,10,11,12,13,14,15,16,18,19,20,21},
	{2,3,4,5,6,7,8,9,10,11,12,13,14,15,16,17,18,19,20,21},
	{2,3,4,5,6,7,8,9,10,11,12,13,14,15,16,17,18,19,20,21},
	{2,3,4,5,6,7,8,9,10,11,12,13,14,15,16,17,18,19,20,21},
	{2,3,4,5,6,8,9,11,13,15,17,18,19},
	{2,3,5,7,9,10,11,12,14,16,17,18,20,21},
	{2,3,4,5,6,7,8,9,10,11,12,13,14,15,16,17,18,19,20,21}];
